(set-logic SLHV)
(declare-hvar emp IntHeap)
(declare-locvar nil IntLoc)
(declare-datatype pt_record_0 ((Pt_R_0 (loc IntLoc))))
(declare-datatype pt_record_1 ((Pt_R_1 (data Int))))
(declare-const d15 Int)
(declare-locvar l22 IntLoc)
(declare-hvar ah9 IntHeap)
(declare-hvar AH_0 IntHeap)
(declare-const d14 Int)
(declare-locvar l20 IntLoc)
(declare-hvar h6 IntHeap)
(declare-hvar H_0 IntHeap)
(declare-locvar l21 IntLoc)
(declare-const loc_0 Int)
(assert
 (let (($x342 (or (= H_0 (uplus h6 (pt l20 (Pt_R_0 l21)))) (= H_0 (uplus h6 (pt l20 (Pt_R_1 d14)))))))
 (let (($x295 (and (and false $x342) (= AH_0 (uplus ah9 (pt l22 (Pt_R_1 d15)))))))
 (let (($x272 (= loc_0 1)))
 (let (($x273 (and (and (= H_0 emp) (= AH_0 emp)) $x272)))
 (and $x273 $x295))))))
(check-sat)
